(set-logic QF_S)
(declare-fun var0 () String)
(assert (RegexIn var0 (RegexConcat (RegexStar (RegexUnion (Str2Reg "00") (Str2Reg "11"))) (RegexConcat (RegexUnion (RegexPlus (Str2Reg "2")) (RegexPlus (Str2Reg "33"))) (RegexConcat (RegexUnion (RegexUnion (Str2Reg "444") (Str2Reg "5")) (RegexUnion (Str2Reg "66") (Str2Reg "777"))) (RegexConcat (RegexPlus (RegexUnion (Str2Reg "888") (Str2Reg "999"))) (RegexConcat (RegexUnion (RegexStar (Str2Reg "a")) (RegexStar (Str2Reg "bb"))) (RegexConcat (RegexStar (RegexStar (Str2Reg "ccc"))) (RegexConcat (RegexPlus (RegexPlus (Str2Reg "dd"))) (RegexConcat (RegexUnion (RegexPlus (Str2Reg "ee")) (RegexPlus (Str2Reg "f"))) (RegexConcat (RegexPlus (RegexPlus (Str2Reg "ggg"))) (RegexConcat (RegexPlus (RegexPlus (Str2Reg "hh"))) (RegexConcat (RegexUnion (RegexPlus (Str2Reg "iii")) (RegexPlus (Str2Reg "jj"))) (RegexConcat (RegexUnion (RegexUnion (Str2Reg "kkk") (Str2Reg "l")) (RegexUnion (Str2Reg "mm") (Str2Reg "nnn"))) (RegexConcat (RegexStar (RegexStar (Str2Reg "ooo"))) (RegexConcat (RegexPlus (RegexUnion (Str2Reg "p") (Str2Reg "q"))) (RegexConcat (RegexUnion (RegexPlus (Str2Reg "rrr")) (RegexPlus (Str2Reg "s"))) (RegexConcat (RegexPlus (RegexUnion (Str2Reg "tt") (Str2Reg "uu"))) (RegexConcat (RegexStar (RegexPlus (Str2Reg "vv"))) (RegexConcat (RegexPlus (RegexUnion (Str2Reg "www") (Str2Reg "xxx"))) (RegexConcat (RegexUnion (RegexStar (Str2Reg "yy")) (RegexStar (Str2Reg "zz"))) (RegexConcat (RegexUnion (RegexUnion (Str2Reg "AA") (Str2Reg "BB")) (RegexUnion (Str2Reg "CCC") (Str2Reg "DDD"))) (RegexConcat (RegexUnion (RegexPlus (Str2Reg "E")) (RegexPlus (Str2Reg "FF"))) (RegexConcat (RegexStar (RegexUnion (Str2Reg "G") (Str2Reg "HH"))) (RegexConcat (RegexUnion (RegexUnion (Str2Reg "I") (Str2Reg "J")) (RegexUnion (Str2Reg "KKK") (Str2Reg "LLL"))) (RegexConcat (RegexStar (RegexPlus (Str2Reg "MM"))) (RegexConcat (RegexUnion (RegexUnion (Str2Reg "N") (Str2Reg "OOO")) (RegexUnion (Str2Reg "PP") (Str2Reg "QQQ"))) (RegexConcat (RegexStar (RegexPlus (Str2Reg "RR"))) (RegexConcat (RegexPlus (RegexStar (Str2Reg "SS"))) (RegexConcat (RegexPlus (RegexStar (Str2Reg "TT"))) (RegexConcat (RegexStar (RegexPlus (Str2Reg "U"))) (RegexConcat (RegexPlus (RegexUnion (Str2Reg "VVV") (Str2Reg "WWW"))) (RegexUnion (RegexUnion (Str2Reg "XXX") (Str2Reg "YY")) (RegexUnion (Str2Reg "ZZ") (Str2Reg "!!!")))))))))))))))))))))))))))))))))))
(check-sat)